1 1 -2 0
1 -3 -2 0
1 -4 5 0
1 4 6 0
1 -4 -7 0
1 6 8 0
1 -6 4 0
1 6 9 0
1 6 10 0
1 2 4 0
1 11 12 0
1 -11 13 0
1 11 -3 0
1 -11 -14 0
1 -11 1 0
1 15 -16 0
1 17 18 0
1 -17 -2 0
1 8 -5 0
1 -8 6 0
1 19 -20 0
1 20 -21 0
1 -20 -5 0
1 -20 -22 0
1 -7 23 0
1 -7 -24 0
1 -7 -17 0
1 7 -14 0
1 -5 -8 0
1 5 25 0
1 5 -14 0
1 -26 27 0
1 26 -28 0
1 26 19 0
1 -26 -17 0
1 -21 8 0
1 -21 -10 0
1 21 17 0
1 23 -29 0
1 23 -7 0
1 23 -30 0
1 -23 -22 0
1 25 31 0
1 25 32 0
1 33 -31 0
1 -22 31 0
1 22 -34 0
1 -22 -29 0
1 -22 35 0
1 -31 -33 0
1 -31 23 0
1 -31 -36 0
1 31 -22 0
1 30 -37 0
1 -30 38 0
1 -30 -39 0
1 30 -35 0
1 30 40 0
1 -37 23 0
1 37 24 0
1 37 19 0
1 -37 -30 0
1 41 -42 0
1 41 43 0
1 -42 44 0
1 -42 45 0
1 46 -45 0
1 -46 43 0
1 -47 48 0
1 -47 49 0
1 -48 16 0
1 48 -13 0
1 48 47 0
1 48 -42 0
1 44 -42 0
1 45 -50 0
1 -45 -46 0
1 18 13 0
1 -18 -51 0
1 -18 -17 0
1 13 11 0
1 -13 -43 0
1 -52 19 0
1 -52 15 0
1 -16 -48 0
1 -16 53 0
1 -16 -51 0
1 -16 54 0
1 16 55 0
1 56 57 0
1 -56 10 0
1 58 -10 0
1 -58 59 0
1 58 -46 0
1 -51 -13 0
1 -51 52 0
1 -51 -18 0
1 51 -46 0
1 10 12 0
1 12 60 0
1 -12 -6 0
1 12 -58 0
1 12 55 0
1 32 -53 0
1 -27 -9 0
1 -53 -61 0
1 53 24 0
1 -53 -52 0
1 -55 -27 0
1 -55 16 0
1 -55 53 0
1 55 62 0
1 -55 24 0
1 -60 -62 0
1 54 -27 0
1 -54 10 0
1 -54 -63 0
1 54 64 0
1 -24 -65 0
1 40 66 0
1 -40 -5 0
1 -38 -67 0
1 38 68 0
1 68 69 0
1 -9 32 0
1 -9 -40 0
1 -70 -38 0
1 -70 24 0
1 70 9 0
1 -70 68 0
1 -65 71 0
1 65 -32 0
1 72 62 0
1 -34 70 0
1 -34 -30 0
1 -35 -31 0
1 73 70 0
1 73 -74 0
1 -73 36 0
1 73 28 0
1 73 -39 0
1 -75 -70 0
1 -75 -69 0
1 75 -76 0
1 67 73 0
1 -69 -34 0
1 69 77 0
1 69 -78 0
1 28 -74 0
1 -28 -34 0
1 -28 -38 0
1 28 -79 0
1 74 -80 0
1 -74 -34 0
1 74 -81 0
1 82 -76 0
1 -82 -80 0
1 -82 -67 0
1 -82 -83 0
1 78 76 0
1 78 67 0
1 78 -83 0
1 84 -76 0
1 -84 85 0
1 -84 77 0
1 84 83 0
1 -77 -69 0
1 -77 84 0
1 77 76 0
1 -77 36 0
1 77 -83 0
1 36 -84 0
1 39 -30 0
1 76 -39 0
1 -57 -86 0
1 -57 -49 0
1 57 50 0
1 57 54 0
1 66 87 0
1 66 -57 0
1 -88 86 0
1 -88 89 0
1 88 90 0
1 -88 50 0
1 64 90 0
1 64 88 0
1 -64 -50 0
1 64 -91 0
1 64 92 0
1 -64 59 0
1 -87 71 0
1 91 87 0
1 -91 43 0
1 86 88 0
1 62 90 0
1 62 34 0
1 62 -92 0
1 62 55 0
1 -93 60 0
1 93 -65 0
1 93 -59 0
1 93 54 0
1 -71 91 0
1 -71 -59 0
1 -71 -94 0
1 -71 -72 0
1 -94 61 0
1 90 -80 0
1 90 -62 0
1 90 79 0
1 -59 90 0
1 59 58 0
1 59 -93 0
1 -89 62 0
1 -89 88 0
1 -89 64 0
1 -92 88 0
1 -92 -94 0
1 80 95 0
1 -80 -9 0
1 -80 -81 0
1 80 63 0
1 81 -90 0
1 81 95 0
1 81 72 0
1 -85 -74 0
1 79 -85 0
1 -79 -95 0
1 -79 96 0
1 61 -85 0
1 61 53 0
1 61 79 0
1 96 85 0
1 96 -79 0
1 95 60 0
1 63 -94 0
